Instance Name : r110
Date : 2022-07-18
Solution
Route 1 : 52 18 83 8 46 45 17 60 89
Route 2 : 2 57 15 41 22 74 56 4
Route 3 : 82 47 19 11 64 49 36 48
Route 4 : 94 87 97 96 6
Route 5 : 95 98 44 16 86 38 14 43 42 58
Route 6 : 28 76 33 81 9 35 34 78 77
Route 7 : 69 70 30 51 71 65 66 20 1
Route 8 : 40 73 21 26 53
Route 9 : 27 31 88 7 62 63 90 32 10
Route 10 : 12 80 29 79 3 50
Route 11 : 72 75 23 67 39 25 55 54 24 68
Route 12 : 59 99 93 5 84 61 85 91 100 37 92 13
